p cnf 269 716
c weights 1.0 1.0 2.718281828459045 0.36787944117144233 2.718281828459045 0.36787944117144233 2.718281828459045 0.36787944117144233 2.718281828459045 0.36787944117144233 2.718281828459045 0.36787944117144233 1.0 1.0 2.718281828459045 0.36787944117144233 2.718281828459045 0.36787944117144233 2.718281828459045 0.36787944117144233 2.718281828459045 0.36787944117144233 1.0 1.0 2.718281828459045 0.36787944117144233 2.718281828459045 0.36787944117144233 2.718281828459045 0.36787944117144233 1.0 1.0 2.718281828459045 0.36787944117144233 2.718281828459045 0.36787944117144233 2.718281828459045 0.36787944117144233 2.718281828459045 0.36787944117144233 2.718281828459045 0.36787944117144233 2.718281828459045 0.36787944117144233 2.718281828459045 0.36787944117144233 1.0 1.0 2.718281828459045 0.36787944117144233 2.718281828459045 0.36787944117144233 2.718281828459045 0.36787944117144233 2.718281828459045 0.36787944117144233 2.718281828459045 0.36787944117144233 1.0 1.0 2.718281828459045 0.36787944117144233 2.718281828459045 0.36787944117144233 2.718281828459045 0.36787944117144233 2.718281828459045 0.36787944117144233 1.0 1.0 2.718281828459045 0.36787944117144233 2.718281828459045 0.36787944117144233 2.718281828459045 0.36787944117144233 1.0 1.0 2.718281828459045 0.36787944117144233 2.718281828459045 0.36787944117144233 2.718281828459045 0.36787944117144233 1.0 1.0 2.718281828459045 0.36787944117144233 2.718281828459045 0.36787944117144233 2.718281828459045 0.36787944117144233 2.718281828459045 0.36787944117144233 2.718281828459045 0.36787944117144233 2.718281828459045 0.36787944117144233 2.718281828459045 0.36787944117144233 1.0 1.0 2.718281828459045 0.36787944117144233 2.718281828459045 0.36787944117144233 2.718281828459045 0.36787944117144233 1.0 1.0 2.718281828459045 0.36787944117144233 2.718281828459045 0.36787944117144233 2.718281828459045 0.36787944117144233 2.718281828459045 0.36787944117144233 2.718281828459045 0.36787944117144233 1.0 1.0 2.718281828459045 0.36787944117144233 2.718281828459045 0.36787944117144233 2.718281828459045 0.36787944117144233 2.718281828459045 0.36787944117144233 2.718281828459045 0.36787944117144233 2.718281828459045 0.36787944117144233 1.0 1.0 2.718281828459045 0.36787944117144233 2.718281828459045 0.36787944117144233 2.718281828459045 0.36787944117144233 2.718281828459045 0.36787944117144233 2.718281828459045 0.36787944117144233 1.0 1.0 2.718281828459045 0.36787944117144233 2.718281828459045 0.36787944117144233 1.0 1.0 2.718281828459045 0.36787944117144233 2.718281828459045 0.36787944117144233 2.718281828459045 0.36787944117144233 1.0 1.0 2.718281828459045 0.36787944117144233 1.0 1.0 2.718281828459045 0.36787944117144233 2.718281828459045 0.36787944117144233 2.718281828459045 0.36787944117144233 2.718281828459045 0.36787944117144233 2.718281828459045 0.36787944117144233 1.0 1.0 2.718281828459045 0.36787944117144233 2.718281828459045 0.36787944117144233 2.718281828459045 0.36787944117144233 2.718281828459045 0.36787944117144233 2.718281828459045 0.36787944117144233 1.0 1.0 2.718281828459045 0.36787944117144233 2.718281828459045 0.36787944117144233 1.0 1.0 2.718281828459045 0.36787944117144233 2.718281828459045 0.36787944117144233 2.718281828459045 0.36787944117144233 2.718281828459045 0.36787944117144233 1.0 1.0 2.718281828459045 0.36787944117144233 2.718281828459045 0.36787944117144233 1.0 1.0 2.718281828459045 0.36787944117144233 1.0 1.0 2.718281828459045 0.36787944117144233 2.718281828459045 0.36787944117144233 1.0 1.0 2.718281828459045 0.36787944117144233 2.718281828459045 0.36787944117144233 1.0 1.0 2.718281828459045 0.36787944117144233 2.718281828459045 0.36787944117144233 2.718281828459045 0.36787944117144233 2.718281828459045 0.36787944117144233 1.0 1.0 2.718281828459045 0.36787944117144233 2.718281828459045 0.36787944117144233 1.0 1.0 2.718281828459045 0.36787944117144233 2.718281828459045 0.36787944117144233 2.718281828459045 0.36787944117144233 2.718281828459045 0.36787944117144233 1.0 1.0 1.0 1.0 2.718281828459045 0.36787944117144233 1.0 1.0 2.718281828459045 0.36787944117144233 1.0 1.0 1.0 1.0 2.718281828459045 0.36787944117144233 2.718281828459045 0.36787944117144233 2.718281828459045 0.36787944117144233 2.718281828459045 0.36787944117144233 2.718281828459045 0.36787944117144233 1.0 1.0 2.718281828459045 0.36787944117144233 2.718281828459045 0.36787944117144233 2.718281828459045 0.36787944117144233 2.718281828459045 0.36787944117144233 2.718281828459045 0.36787944117144233 1.0 1.0 2.718281828459045 0.36787944117144233 2.718281828459045 0.36787944117144233 2.718281828459045 0.36787944117144233 2.718281828459045 0.36787944117144233 1.0 1.0 2.718281828459045 0.36787944117144233 2.718281828459045 0.36787944117144233 1.0 1.0 2.718281828459045 0.36787944117144233 1.0 1.0 2.718281828459045 0.36787944117144233 1.0 1.0 2.718281828459045 0.36787944117144233 2.718281828459045 0.36787944117144233 2.718281828459045 0.36787944117144233 2.718281828459045 0.36787944117144233 1.0 1.0 2.718281828459045 0.36787944117144233 2.718281828459045 0.36787944117144233 2.718281828459045 0.36787944117144233 2.718281828459045 0.36787944117144233 1.0 1.0 2.718281828459045 0.36787944117144233 2.718281828459045 0.36787944117144233 2.718281828459045 0.36787944117144233 2.718281828459045 0.36787944117144233 1.0 1.0 2.718281828459045 0.36787944117144233 1.0 1.0 1.0 1.0 2.718281828459045 0.36787944117144233 2.718281828459045 0.36787944117144233 2.718281828459045 0.36787944117144233 2.718281828459045 0.36787944117144233 2.718281828459045 0.36787944117144233 1.0 1.0 2.718281828459045 0.36787944117144233 2.718281828459045 0.36787944117144233 2.718281828459045 0.36787944117144233 1.0 1.0 2.718281828459045 0.36787944117144233 2.718281828459045 0.36787944117144233 1.0 1.0 2.718281828459045 0.36787944117144233 2.718281828459045 0.36787944117144233 1.0 1.0 1.0 1.0 2.718281828459045 0.36787944117144233 2.718281828459045 0.36787944117144233 2.718281828459045 0.36787944117144233 1.0 1.0 2.718281828459045 0.36787944117144233 2.718281828459045 0.36787944117144233 2.718281828459045 0.36787944117144233 1.0 1.0 2.718281828459045 0.36787944117144233 2.718281828459045 0.36787944117144233 1.0 1.0 1.0 1.0 1.0 1.0 2.718281828459045 0.36787944117144233 2.718281828459045 0.36787944117144233 2.718281828459045 0.36787944117144233 2.718281828459045 0.36787944117144233 2.718281828459045 0.36787944117144233 1.0 1.0 2.718281828459045 0.36787944117144233 2.718281828459045 0.36787944117144233 2.718281828459045 0.36787944117144233 1.0 1.0 1.0 1.0 2.718281828459045 0.36787944117144233 1.0 1.0 2.718281828459045 0.36787944117144233 1.0 1.0 2.718281828459045 0.36787944117144233 1.0 1.0 1.0 1.0 1.0 1.0 2.718281828459045 0.36787944117144233 1.0 1.0 1.0 1.0 2.718281828459045 0.36787944117144233 2.718281828459045 0.36787944117144233 1.0 1.0 2.718281828459045 0.36787944117144233 1.0 1.0 2.718281828459045 0.36787944117144233 2.718281828459045 0.36787944117144233 1.0 1.0 2.718281828459045 0.36787944117144233 1.0 1.0 2.718281828459045 0.36787944117144233 1.0 1.0 1.0 1.0 2.718281828459045 0.36787944117144233 1.0 1.0 2.718281828459045 0.36787944117144233 1.0 1.0 2.718281828459045 0.36787944117144233 1.0 1.0 2.718281828459045 0.36787944117144233 2.718281828459045 0.36787944117144233 1.0 1.0 2.718281828459045 0.36787944117144233 1.0 1.0 2.718281828459045 0.36787944117144233 1.0 1.0 1.0 1.0 1.0 1.0 2.718281828459045 0.36787944117144233 1.0 1.0 1.0 1.0 1.0 1.0 1.0 1.0 1.0 1.0 1.0 1.0 1.0 1.0 1.0 1.0 1.0 1.0 1.0 1.0 1.0 1.0 1.0 1.0 1.0 1.0
2 1 98 0
2 -1 -98 0
-2 1 -98 0
-2 -1 98 0
3 1 103 0
3 -1 -103 0
-3 1 -103 0
-3 -1 103 0
4 1 139 0
4 -1 -139 0
-4 1 -139 0
-4 -1 139 0
5 1 230 0
5 -1 -230 0
-5 1 -230 0
-5 -1 230 0
6 1 265 0
6 -1 -265 0
-6 1 -265 0
-6 -1 265 0
8 7 181 0
8 -7 -181 0
-8 7 -181 0
-8 -7 181 0
9 7 188 0
9 -7 -188 0
-9 7 -188 0
-9 -7 188 0
10 7 205 0
10 -7 -205 0
-10 7 -205 0
-10 -7 205 0
11 7 222 0
11 -7 -222 0
-11 7 -222 0
-11 -7 222 0
13 12 55 0
13 -12 -55 0
-13 12 -55 0
-13 -12 55 0
14 12 128 0
14 -12 -128 0
-14 12 -128 0
-14 -12 128 0
15 12 191 0
15 -12 -191 0
-15 12 -191 0
-15 -12 191 0
17 16 43 0
17 -16 -43 0
-17 16 -43 0
-17 -16 43 0
18 16 145 0
18 -16 -145 0
-18 16 -145 0
-18 -16 145 0
19 16 185 0
19 -16 -185 0
-19 16 -185 0
-19 -16 185 0
20 16 255 0
20 -16 -255 0
-20 16 -255 0
-20 -16 255 0
21 16 262 0
21 -16 -262 0
-21 16 -262 0
-21 -16 262 0
22 16 264 0
22 -16 -264 0
-22 16 -264 0
-22 -16 264 0
23 16 267 0
23 -16 -267 0
-23 16 -267 0
-23 -16 267 0
25 24 103 0
25 -24 -103 0
-25 24 -103 0
-25 -24 103 0
26 24 223 0
26 -24 -223 0
-26 24 -223 0
-26 -24 223 0
27 24 232 0
27 -24 -232 0
-27 24 -232 0
-27 -24 232 0
28 24 267 0
28 -24 -267 0
-28 24 -267 0
-28 -24 267 0
29 24 268 0
29 -24 -268 0
-29 24 -268 0
-29 -24 268 0
31 30 127 0
31 -30 -127 0
-31 30 -127 0
-31 -30 127 0
32 30 196 0
32 -30 -196 0
-32 30 -196 0
-32 -30 196 0
33 30 222 0
33 -30 -222 0
-33 30 -222 0
-33 -30 222 0
34 30 263 0
34 -30 -263 0
-34 30 -263 0
-34 -30 263 0
36 35 175 0
36 -35 -175 0
-36 35 -175 0
-36 -35 175 0
37 35 226 0
37 -35 -226 0
-37 35 -226 0
-37 -35 226 0
38 35 255 0
38 -35 -255 0
-38 35 -255 0
-38 -35 255 0
40 39 111 0
40 -39 -111 0
-40 39 -111 0
-40 -39 111 0
41 39 130 0
41 -39 -130 0
-41 39 -130 0
-41 -39 130 0
42 39 267 0
42 -39 -267 0
-42 39 -267 0
-42 -39 267 0
44 43 61 0
44 -43 -61 0
-44 43 -61 0
-44 -43 61 0
45 43 111 0
45 -43 -111 0
-45 43 -111 0
-45 -43 111 0
46 43 122 0
46 -43 -122 0
-46 43 -122 0
-46 -43 122 0
47 43 155 0
47 -43 -155 0
-47 43 -155 0
-47 -43 155 0
48 43 191 0
48 -43 -191 0
-48 43 -191 0
-48 -43 191 0
49 43 215 0
49 -43 -215 0
-49 43 -215 0
-49 -43 215 0
50 43 246 0
50 -43 -246 0
-50 43 -246 0
-50 -43 246 0
52 51 133 0
52 -51 -133 0
-52 51 -133 0
-52 -51 133 0
53 51 242 0
53 -51 -242 0
-53 51 -242 0
-53 -51 242 0
54 51 258 0
54 -51 -258 0
-54 51 -258 0
-54 -51 258 0
56 55 167 0
56 -55 -167 0
-56 55 -167 0
-56 -55 167 0
57 55 230 0
57 -55 -230 0
-57 55 -230 0
-57 -55 230 0
58 55 257 0
58 -55 -257 0
-58 55 -257 0
-58 -55 257 0
59 55 261 0
59 -55 -261 0
-59 55 -261 0
-59 -55 261 0
60 55 263 0
60 -55 -263 0
-60 55 -263 0
-60 -55 263 0
62 61 174 0
62 -61 -174 0
-62 61 -174 0
-62 -61 174 0
63 61 215 0
63 -61 -215 0
-63 61 -215 0
-63 -61 215 0
64 61 223 0
64 -61 -223 0
-64 61 -223 0
-64 -61 223 0
65 61 255 0
65 -61 -255 0
-65 61 -255 0
-65 -61 255 0
66 61 262 0
66 -61 -262 0
-66 61 -262 0
-66 -61 262 0
67 61 269 0
67 -61 -269 0
-67 61 -269 0
-67 -61 269 0
69 68 111 0
69 -68 -111 0
-69 68 -111 0
-69 -68 111 0
70 68 192 0
70 -68 -192 0
-70 68 -192 0
-70 -68 192 0
71 68 215 0
71 -68 -215 0
-71 68 -215 0
-71 -68 215 0
72 68 226 0
72 -68 -226 0
-72 68 -226 0
-72 -68 226 0
73 68 244 0
73 -68 -244 0
-73 68 -244 0
-73 -68 244 0
75 74 127 0
75 -74 -127 0
-75 74 -127 0
-75 -74 127 0
76 74 155 0
76 -74 -155 0
-76 74 -155 0
-76 -74 155 0
78 77 139 0
78 -77 -139 0
-78 77 -139 0
-78 -77 139 0
79 77 167 0
79 -77 -167 0
-79 77 -167 0
-79 -77 167 0
80 77 246 0
80 -77 -246 0
-80 77 -246 0
-80 -77 246 0
82 81 258 0
82 -81 -258 0
-82 81 -258 0
-82 -81 258 0
84 83 89 0
84 -83 -89 0
-84 83 -89 0
-84 -83 89 0
85 83 192 0
85 -83 -192 0
-85 83 -192 0
-85 -83 192 0
86 83 224 0
86 -83 -224 0
-86 83 -224 0
-86 -83 224 0
87 83 232 0
87 -83 -232 0
-87 83 -232 0
-87 -83 232 0
88 83 254 0
88 -83 -254 0
-88 83 -254 0
-88 -83 254 0
90 89 167 0
90 -89 -167 0
-90 89 -167 0
-90 -89 167 0
91 89 175 0
91 -89 -175 0
-91 89 -175 0
-91 -89 175 0
92 89 192 0
92 -89 -192 0
-92 89 -192 0
-92 -89 192 0
93 89 244 0
93 -89 -244 0
-93 89 -244 0
-93 -89 244 0
94 89 263 0
94 -89 -263 0
-94 89 -263 0
-94 -89 263 0
96 95 155 0
96 -95 -155 0
-96 95 -155 0
-96 -95 155 0
97 95 260 0
97 -95 -260 0
-97 95 -260 0
-97 -95 260 0
99 98 133 0
99 -98 -133 0
-99 98 -133 0
-99 -98 133 0
100 98 192 0
100 -98 -192 0
-100 98 -192 0
-100 -98 192 0
101 98 235 0
101 -98 -235 0
-101 98 -235 0
-101 -98 235 0
102 98 267 0
102 -98 -267 0
-102 98 -267 0
-102 -98 267 0
104 103 181 0
104 -103 -181 0
-104 103 -181 0
-104 -103 181 0
105 103 263 0
105 -103 -263 0
-105 103 -263 0
-105 -103 263 0
107 106 157 0
107 -106 -157 0
-107 106 -157 0
-107 -106 157 0
109 108 216 0
109 -108 -216 0
-109 108 -216 0
-109 -108 216 0
110 108 266 0
110 -108 -266 0
-110 108 -266 0
-110 -108 266 0
112 111 188 0
112 -111 -188 0
-112 111 -188 0
-112 -111 188 0
113 111 246 0
113 -111 -246 0
-113 111 -246 0
-113 -111 246 0
115 114 145 0
115 -114 -145 0
-115 114 -145 0
-115 -114 145 0
116 114 167 0
116 -114 -167 0
-116 114 -167 0
-116 -114 167 0
117 114 196 0
117 -114 -196 0
-117 114 -196 0
-117 -114 196 0
118 114 265 0
118 -114 -265 0
-118 114 -265 0
-118 -114 265 0
120 119 253 0
120 -119 -253 0
-120 119 -253 0
-120 -119 253 0
121 119 255 0
121 -119 -255 0
-121 119 -255 0
-121 -119 255 0
123 122 155 0
123 -122 -155 0
-123 122 -155 0
-123 -122 155 0
124 122 172 0
124 -122 -172 0
-124 122 -172 0
-124 -122 172 0
125 122 215 0
125 -122 -215 0
-125 122 -215 0
-125 -122 215 0
126 122 240 0
126 -122 -240 0
-126 122 -240 0
-126 -122 240 0
129 128 218 0
129 -128 -218 0
-129 128 -218 0
-129 -128 218 0
131 130 174 0
131 -130 -174 0
-131 130 -174 0
-131 -130 174 0
134 133 155 0
134 -133 -155 0
-134 133 -155 0
-134 -133 155 0
135 133 203 0
135 -133 -203 0
-135 133 -203 0
-135 -133 203 0
136 133 244 0
136 -133 -244 0
-136 133 -244 0
-136 -133 244 0
137 133 249 0
137 -133 -249 0
-137 133 -249 0
-137 -133 249 0
138 133 269 0
138 -133 -269 0
-138 133 -269 0
-138 -133 269 0
140 139 153 0
140 -139 -153 0
-140 139 -153 0
-140 -139 153 0
141 139 222 0
141 -139 -222 0
-141 139 -222 0
-141 -139 222 0
142 139 230 0
142 -139 -230 0
-142 139 -230 0
-142 -139 230 0
143 139 242 0
143 -139 -242 0
-143 139 -242 0
-143 -139 242 0
144 139 267 0
144 -139 -267 0
-144 139 -267 0
-144 -139 267 0
146 145 226 0
146 -145 -226 0
-146 145 -226 0
-146 -145 226 0
147 145 230 0
147 -145 -230 0
-147 145 -230 0
-147 -145 230 0
148 145 239 0
148 -145 -239 0
-148 145 -239 0
-148 -145 239 0
149 145 260 0
149 -145 -260 0
-149 145 -260 0
-149 -145 260 0
151 150 205 0
151 -150 -205 0
-151 150 -205 0
-151 -150 205 0
152 150 230 0
152 -150 -230 0
-152 150 -230 0
-152 -150 230 0
154 153 232 0
154 -153 -232 0
-154 153 -232 0
-154 -153 232 0
156 155 181 0
156 -155 -181 0
-156 155 -181 0
-156 -155 181 0
158 157 185 0
158 -157 -185 0
-158 157 -185 0
-158 -157 185 0
159 157 216 0
159 -157 -216 0
-159 157 -216 0
-159 -157 216 0
160 157 251 0
160 -157 -251 0
-160 157 -251 0
-160 -157 251 0
161 157 257 0
161 -157 -257 0
-161 157 -257 0
-161 -157 257 0
163 162 205 0
163 -162 -205 0
-163 162 -205 0
-163 -162 205 0
164 162 244 0
164 -162 -244 0
-164 162 -244 0
-164 -162 244 0
165 162 255 0
165 -162 -255 0
-165 162 -255 0
-165 -162 255 0
166 162 268 0
166 -162 -268 0
-166 162 -268 0
-166 -162 268 0
168 167 205 0
168 -167 -205 0
-168 167 -205 0
-168 -167 205 0
169 167 224 0
169 -167 -224 0
-169 167 -224 0
-169 -167 224 0
170 167 240 0
170 -167 -240 0
-170 167 -240 0
-170 -167 240 0
171 167 269 0
171 -167 -269 0
-171 167 -269 0
-171 -167 269 0
173 172 203 0
173 -172 -203 0
-173 172 -203 0
-173 -172 203 0
176 175 191 0
176 -175 -191 0
-176 175 -191 0
-176 -175 191 0
177 175 196 0
177 -175 -196 0
-177 175 -196 0
-177 -175 196 0
178 175 203 0
178 -175 -203 0
-178 175 -203 0
-178 -175 203 0
179 175 215 0
179 -175 -215 0
-179 175 -215 0
-179 -175 215 0
180 175 257 0
180 -175 -257 0
-180 175 -257 0
-180 -175 257 0
182 181 185 0
182 -181 -185 0
-182 181 -185 0
-182 -181 185 0
183 181 237 0
183 -181 -237 0
-183 181 -237 0
-183 -181 237 0
184 181 264 0
184 -181 -264 0
-184 181 -264 0
-184 -181 264 0
186 185 226 0
186 -185 -226 0
-186 185 -226 0
-186 -185 226 0
187 185 262 0
187 -185 -262 0
-187 185 -262 0
-187 -185 262 0
189 188 222 0
189 -188 -222 0
-189 188 -222 0
-189 -188 222 0
190 188 254 0
190 -188 -254 0
-190 188 -254 0
-190 -188 254 0
193 192 240 0
193 -192 -240 0
-193 192 -240 0
-193 -192 240 0
194 192 244 0
194 -192 -244 0
-194 192 -244 0
-194 -192 244 0
195 192 246 0
195 -192 -246 0
-195 192 -246 0
-195 -192 246 0
197 196 232 0
197 -196 -232 0
-197 196 -232 0
-197 -196 232 0
198 196 240 0
198 -196 -240 0
-198 196 -240 0
-198 -196 240 0
199 196 262 0
199 -196 -262 0
-199 196 -262 0
-199 -196 262 0
201 200 216 0
201 -200 -216 0
-201 200 -216 0
-201 -200 216 0
202 200 244 0
202 -200 -244 0
-202 200 -244 0
-202 -200 244 0
206 205 211 0
206 -205 -211 0
-206 205 -211 0
-206 -205 211 0
207 205 222 0
207 -205 -222 0
-207 205 -222 0
-207 -205 222 0
208 205 226 0
208 -205 -226 0
-208 205 -226 0
-208 -205 226 0
209 205 230 0
209 -205 -230 0
-209 205 -230 0
-209 -205 230 0
210 205 258 0
210 -205 -258 0
-210 205 -258 0
-210 -205 258 0
212 211 244 0
212 -211 -244 0
-212 211 -244 0
-212 -211 244 0
213 211 246 0
213 -211 -246 0
-213 211 -246 0
-213 -211 246 0
214 211 251 0
214 -211 -251 0
-214 211 -251 0
-214 -211 251 0
217 216 261 0
217 -216 -261 0
-217 216 -261 0
-217 -216 261 0
219 218 239 0
219 -218 -239 0
-219 218 -239 0
-219 -218 239 0
221 220 240 0
221 -220 -240 0
-221 220 -240 0
-221 -220 240 0
225 224 235 0
225 -224 -235 0
-225 224 -235 0
-225 -224 235 0
228 227 232 0
228 -227 -232 0
-228 227 -232 0
-228 -227 232 0
229 227 269 0
229 -227 -269 0
-229 227 -269 0
-229 -227 269 0
231 230 262 0
231 -230 -262 0
-231 230 -262 0
-231 -230 262 0
233 232 244 0
233 -232 -244 0
-233 232 -244 0
-233 -232 244 0
234 232 255 0
234 -232 -255 0
-234 232 -255 0
-234 -232 255 0
236 235 264 0
236 -235 -264 0
-236 235 -264 0
-236 -235 264 0
238 237 251 0
238 -237 -251 0
-238 237 -251 0
-238 -237 251 0
241 240 258 0
241 -240 -258 0
-241 240 -258 0
-241 -240 258 0
243 242 246 0
243 -242 -246 0
-243 242 -246 0
-243 -242 246 0
245 244 259 0
245 -244 -259 0
-245 244 -259 0
-245 -244 259 0
247 246 259 0
247 -246 -259 0
-247 246 -259 0
-247 -246 259 0
248 246 268 0
248 -246 -268 0
-248 246 -268 0
-248 -246 268 0
250 249 262 0
250 -249 -262 0
-250 249 -262 0
-250 -249 262 0
252 251 254 0
252 -251 -254 0
-252 251 -254 0
-252 -251 254 0
256 255 268 0
256 -255 -268 0
-256 255 -268 0
-256 -255 268 0
